# Solution for model micodag
# Objective value = 6.4770341116928734e+00
s_0_1 0
s_1_0 0
s_1_3 0
s_3_1 0
s_1_4 0
s_4_1 2.6787719491671425e-01
s_2_3 0
s_3_2 2.7895033898961241e-01
s_2_5 9.7664754441529489e-01
s_5_2 0
s_3_4 0
s_4_3 3.1427937087065683e-01
s_4_5 0
s_5_4 0
s_4_6 0
s_6_4 7.6142160447360840e-01
s_4_7 0
s_7_4 6.9378523473910025e-01
s_5_6 0
s_6_5 1.3560042423030305e+00
s_0_0 1.06024277624899
s_1_1 6.5327172287403279e-01
s_2_2 3.5523010992497217e+00
s_3_3 7.8528433919219509e-01
s_4_4 6.3184765833336165e-01
s_5_5 1.3091823606426924e+00
s_6_6 2.1424587000213422e+00
s_7_7 1.8917373795395971e+00
Gamma_0_0 1.0296809099177231e+00
Gamma_0_1 0
Gamma_0_2 0
Gamma_0_3 0
Gamma_0_4 0
Gamma_0_5 0
Gamma_0_6 0
Gamma_0_7 0
Gamma_1_0 0
Gamma_1_1 8.0825226437915643e-01
Gamma_1_2 0
Gamma_1_3 0
Gamma_1_4 0
Gamma_1_5 0
Gamma_1_6 0
Gamma_1_7 0
Gamma_2_0 0
Gamma_2_1 0
Gamma_2_2 1.8847549175555218e+00
Gamma_2_3 0
Gamma_2_4 0
Gamma_2_5 -9.8825479731458710e-01
Gamma_2_6 0
Gamma_2_7 0
Gamma_3_0 0
Gamma_3_1 0
Gamma_3_2 5.2815749449346372e-01
Gamma_3_3 8.8616270469490854e-01
Gamma_3_4 0
Gamma_3_5 0
Gamma_3_6 0
Gamma_3_7 0
Gamma_4_0 0
Gamma_4_1 -5.1756854127421115e-01
Gamma_4_2 0
Gamma_4_3 5.6060625297142141e-01
Gamma_4_4 0.794888456535483
Gamma_4_5 0
Gamma_4_6 0
Gamma_4_7 0
Gamma_5_0 0
Gamma_5_1 0
Gamma_5_2 0
Gamma_5_3 0
Gamma_5_4 0
Gamma_5_5 1.1441950710620512e+00
Gamma_5_6 0
Gamma_5_7 0
Gamma_6_0 0
Gamma_6_1 0
Gamma_6_2 0
Gamma_6_3 0
Gamma_6_4 -8.7259475386550966e-01
Gamma_6_5 1.1644759517924923e+00
Gamma_6_6 1.4637140089584926e+00
Gamma_6_7 0
Gamma_7_0 0
Gamma_7_1 0
Gamma_7_2 0
Gamma_7_3 0
Gamma_7_4 -8.3293771360114410e-01
Gamma_7_5 0
Gamma_7_6 0
Gamma_7_7 1.3754044421695015e+00
psi_0 0
psi_1 2
psi_2 3
psi_3 2
psi_4 1
psi_5 4
psi_6 0
psi_7 0
g_0_0 0
g_0_1 0
g_0_2 0
g_0_3 0
g_0_4 0
g_0_5 0
g_0_6 0
g_0_7 0
g_1_0 0
g_1_1 0
g_1_2 0
g_1_3 0
g_1_4 0
g_1_5 0
g_1_6 0
g_1_7 0
g_2_0 0
g_2_1 0
g_2_2 0
g_2_3 0
g_2_4 0
g_2_5 1
g_2_6 0
g_2_7 0
g_3_0 0
g_3_1 0
g_3_2 1
g_3_3 0
g_3_4 0
g_3_5 0
g_3_6 0
g_3_7 0
g_4_0 0
g_4_1 1
g_4_2 0
g_4_3 1
g_4_4 0
g_4_5 0
g_4_6 0
g_4_7 0
g_5_0 0
g_5_1 0
g_5_2 0
g_5_3 0
g_5_4 0
g_5_5 0
g_5_6 0
g_5_7 0
g_6_0 0
g_6_1 0
g_6_2 0
g_6_3 0
g_6_4 1
g_6_5 1
g_6_6 0
g_6_7 0
g_7_0 0
g_7_1 0
g_7_2 0
g_7_3 0
g_7_4 1
g_7_5 0
g_7_6 0
g_7_7 0
T_0 -5.8497916096811764e-02
T_1 4.2576212159579541e-01
T_2 -1.2675955904701510e+00
T_3 2.4170941125247225e-01
T_4 4.5910696083264213e-01
T_5 -2.6940279016784530e-01
T_6 -7.6195409476787290e-01
T_7 -6.3749565525510832e-01
